; benchmark generated from python API
(set-info :status unknown)
(declare-fun x_days () (_ BitVec 32))
(assert
 (bvsle (_ bv4294930771 32) x_days))
(assert
 (bvsge (_ bv36523 32) x_days))
(assert
 (= x_days (_ bv7304 32)))
(assert
 (let ((?x1781 (bvadd x_days (_ bv730179 32))))
(let ((?x1150 (bvsmod ?x1781 (_ bv146097 32))))
(let ((?x3270 (bvsdiv ?x1150 (_ bv36524 32))))
(let ((?x3815 (ite (bvsle (_ bv4 32) ?x3270) (_ bv3 32) ?x3270)))
(let ((?x1322 (bvsub ?x1150 (bvmul ?x3815 (_ bv36524 32)))))
(let ((?x2637 (bvsmod ?x1322 (_ bv1461 32))))
(let ((?x18516 (bvsdiv ?x2637 (_ bv365 32))))
(let ((?x2269 (ite (bvsle (_ bv4 32) ?x18516) (_ bv3 32) ?x18516)))
(let ((?x2689 (bvadd (bvadd (bvmul (bvsdiv ?x1781 (_ bv146097 32)) (_ bv400 32)) (bvmul ?x3815 (_ bv100 32))) (bvmul (bvsdiv ?x1322 (_ bv1461 32)) (_ bv4 32)))))
(let ((?x691 (bvadd (bvadd ?x2689 ?x2269) (_ bv1 32))))
(let (($x3332 (or (and (= (bvsmod ?x691 (_ bv4 32)) (_ bv0 32)) (and (distinct (bvsmod ?x691 (_ bv100 32)) (_ bv0 32)) true)) (= (bvsmod ?x691 (_ bv400 32)) (_ bv0 32)))))
(let ((?x2859 (bvsub ?x2637 (bvmul ?x2269 (_ bv365 32)))))
(let ((?x18893 (ite $x3332 (_ bv31 32) (_ bv31 32))))
(let (($x1295 (bvsge ?x2859 ?x18893)))
(let ((?x2654 (ite $x1295 (bvadd (bvsub ?x2859 ?x18893) (_ bv1 32)) (bvadd (bvsub ?x2859 (ite $x3332 (_ bv0 32) (_ bv0 32))) (_ bv1 32)))))
(let ((?x637 (ite $x3332 (_ bv60 32) (_ bv59 32))))
(let (($x2936 (bvsge ?x2859 ?x637)))
(let ((?x3490 (ite $x3332 (_ bv91 32) (_ bv90 32))))
(let (($x4493 (bvsge ?x2859 ?x3490)))
(let ((?x2056 (ite $x4493 (bvadd (bvsub ?x2859 ?x3490) (_ bv1 32)) (ite $x2936 (bvadd (bvsub ?x2859 ?x637) (_ bv1 32)) ?x2654))))
(let ((?x1427 (ite $x3332 (_ bv121 32) (_ bv120 32))))
(let (($x1536 (bvsge ?x2859 ?x1427)))
(let ((?x1870 (ite $x3332 (_ bv152 32) (_ bv151 32))))
(let (($x4494 (bvsge ?x2859 ?x1870)))
(let ((?x3348 (ite $x4494 (bvadd (bvsub ?x2859 ?x1870) (_ bv1 32)) (ite $x1536 (bvadd (bvsub ?x2859 ?x1427) (_ bv1 32)) ?x2056))))
(let ((?x4422 (ite $x3332 (_ bv182 32) (_ bv181 32))))
(let (($x2913 (bvsge ?x2859 ?x4422)))
(let ((?x18948 (ite $x3332 (_ bv213 32) (_ bv212 32))))
(let (($x2487 (bvsge ?x2859 ?x18948)))
(let ((?x2329 (ite $x2487 (bvadd (bvsub ?x2859 ?x18948) (_ bv1 32)) (ite $x2913 (bvadd (bvsub ?x2859 ?x4422) (_ bv1 32)) ?x3348))))
(let ((?x3602 (ite $x3332 (_ bv244 32) (_ bv243 32))))
(let (($x2110 (bvsge ?x2859 ?x3602)))
(let ((?x1768 (ite $x3332 (_ bv274 32) (_ bv273 32))))
(let (($x3049 (bvsge ?x2859 ?x1768)))
(let ((?x1277 (ite $x3049 (bvadd (bvsub ?x2859 ?x1768) (_ bv1 32)) (ite $x2110 (bvadd (bvsub ?x2859 ?x3602) (_ bv1 32)) ?x2329))))
(let ((?x1900 (ite $x3332 (_ bv305 32) (_ bv304 32))))
(let (($x3363 (bvsge ?x2859 ?x1900)))
(let ((?x1191 (ite $x3332 (_ bv335 32) (_ bv334 32))))
(let (($x1640 (bvsge ?x2859 ?x1191)))
(let ((?x1667 (ite $x1640 (bvadd (bvsub ?x2859 ?x1191) (_ bv1 32)) (ite $x3363 (bvadd (bvsub ?x2859 ?x1900) (_ bv1 32)) ?x1277))))
(let ((?x997 (ite $x4494 (_ bv6 32) (ite $x1536 (_ bv5 32) (ite $x4493 (_ bv4 32) (ite $x2936 (_ bv3 32) (ite $x1295 (_ bv2 32) (_ bv1 32))))))))
(let ((?x1518 (ite $x3363 (_ bv11 32) (ite $x3049 (_ bv10 32) (ite $x2110 (_ bv9 32) (ite $x2487 (_ bv8 32) (ite $x2913 (_ bv7 32) ?x997)))))))
(let ((?x903 (bvadd (ite $x1640 (_ bv12 32) ?x1518) (bvadd (bvmul (_ bv1 32) (_ bv12 32)) (_ bv0 32)))))
(let ((?x3831 (bvsub (ite (bvuge ?x903 (_ bv2147483648 32)) (bvsub ?x903 (_ bv0 32)) ?x903) (_ bv1 32))))
(let ((?x3653 (bvsmod ?x3831 (_ bv12 32))))
(let ((?x3251 (bvadd ?x3653 (_ bv1 32))))
(let ((?x4322 (ite (or (= ?x3251 (_ bv4 32)) (= ?x3251 (_ bv6 32)) (= ?x3251 (_ bv9 32)) (= ?x3251 (_ bv11 32))) (_ bv30 32) (_ bv31 32))))
(let ((?x2020 (bvsdiv ?x3831 (_ bv12 32))))
(let ((?x1336 (ite (and (bvuge ?x3831 (_ bv2147483648 32)) (and (distinct (_ bv0 32) ?x3653) true)) (bvsub ?x2020 (_ bv1 32)) ?x2020)))
(let ((?x3863 (bvadd ?x691 (bvadd (_ bv0 32) ?x1336))))
(let (($x2931 (or (and (= (bvsmod ?x3863 (_ bv4 32)) (_ bv0 32)) (and (distinct (bvsmod ?x3863 (_ bv100 32)) (_ bv0 32)) true)) (= (bvsmod ?x3863 (_ bv400 32)) (_ bv0 32)))))
(let ((?x703 (ite (= ?x3251 (_ bv2 32)) (ite $x2931 (_ bv29 32) (_ bv28 32)) ?x4322)))
(let ((?x1657 (ite (bvsgt (_ bv1 32) ?x1667) (_ bv1 32) (ite (bvsgt ?x1667 ?x703) ?x703 ?x1667))))
(let ((?x3186 (ite (bvsgt (_ bv1 32) ?x1657) (_ bv1 32) (ite (bvsgt ?x1657 ?x703) ?x703 ?x1657))))
(let ((?x2981 (ite (= (_ bv2 32) ?x3251) (ite $x2931 (_ bv31 32) (_ bv31 32)) (ite (= (_ bv1 32) ?x3251) (ite $x2931 (_ bv0 32) (_ bv0 32)) (_ bv0 32)))))
(let ((?x968 (ite (= (_ bv4 32) ?x3251) (ite $x2931 (_ bv91 32) (_ bv90 32)) (ite (= (_ bv3 32) ?x3251) (ite $x2931 (_ bv60 32) (_ bv59 32)) ?x2981))))
(let ((?x3018 (ite (= (_ bv6 32) ?x3251) (ite $x2931 (_ bv152 32) (_ bv151 32)) (ite (= (_ bv5 32) ?x3251) (ite $x2931 (_ bv121 32) (_ bv120 32)) ?x968))))
(let ((?x3011 (ite (= (_ bv8 32) ?x3251) (ite $x2931 (_ bv213 32) (_ bv212 32)) (ite (= (_ bv7 32) ?x3251) (ite $x2931 (_ bv182 32) (_ bv181 32)) ?x3018))))
(let ((?x1832 (ite (= (_ bv10 32) ?x3251) (ite $x2931 (_ bv274 32) (_ bv273 32)) (ite (= (_ bv9 32) ?x3251) (ite $x2931 (_ bv244 32) (_ bv243 32)) ?x3011))))
(let ((?x3897 (ite (= (_ bv12 32) ?x3251) (ite $x2931 (_ bv335 32) (_ bv334 32)) (ite (= (_ bv11 32) ?x3251) (ite $x2931 (_ bv305 32) (_ bv304 32)) ?x1832))))
(let ((?x4110 (bvadd (bvmul (_ bv365 32) (bvsub ?x3863 (_ bv1 32))) (bvsdiv (bvsub ?x3863 (_ bv1 32)) (_ bv4 32)))))
(let ((?x2862 (bvadd (bvsub ?x4110 (bvsdiv (bvsub ?x3863 (_ bv1 32)) (_ bv100 32))) (bvsdiv (bvsub ?x3863 (_ bv1 32)) (_ bv400 32)))))
(let ((?x4047 (bvadd (bvadd (bvsub (bvadd (bvadd ?x2862 ?x3897) (bvsub ?x3186 (_ bv1 32))) (_ bv730179 32)) (_ bv0 32)) (_ bv730179 32))))
(let ((?x1814 (bvsmod ?x4047 (_ bv146097 32))))
(let ((?x1797 (bvsdiv ?x1814 (_ bv36524 32))))
(let ((?x3275 (ite (bvsle (_ bv4 32) ?x1797) (_ bv3 32) ?x1797)))
(let ((?x2575 (bvsub ?x1814 (bvmul ?x3275 (_ bv36524 32)))))
(let ((?x2237 (bvsmod ?x2575 (_ bv1461 32))))
(let ((?x2863 (bvsdiv ?x2237 (_ bv365 32))))
(let ((?x2204 (ite (bvsle (_ bv4 32) ?x2863) (_ bv3 32) ?x2863)))
(let ((?x1617 (bvadd (bvadd (bvmul (bvsdiv ?x4047 (_ bv146097 32)) (_ bv400 32)) (bvmul ?x3275 (_ bv100 32))) (bvmul (bvsdiv ?x2575 (_ bv1461 32)) (_ bv4 32)))))
(let ((?x912 (bvadd (bvadd ?x1617 ?x2204) (_ bv1 32))))
(let (($x2623 (or (and (= (bvsmod ?x912 (_ bv4 32)) (_ bv0 32)) (and (distinct (bvsmod ?x912 (_ bv100 32)) (_ bv0 32)) true)) (= (bvsmod ?x912 (_ bv400 32)) (_ bv0 32)))))
(let ((?x1257 (bvsub ?x2237 (bvmul ?x2204 (_ bv365 32)))))
(let ((?x2427 (ite $x2623 (_ bv31 32) (_ bv31 32))))
(let (($x1801 (bvsge ?x1257 ?x2427)))
(let ((?x4424 (ite $x1801 (bvadd (bvsub ?x1257 ?x2427) (_ bv1 32)) (bvadd (bvsub ?x1257 (ite $x2623 (_ bv0 32) (_ bv0 32))) (_ bv1 32)))))
(let ((?x2219 (ite $x2623 (_ bv60 32) (_ bv59 32))))
(let (($x618 (bvsge ?x1257 ?x2219)))
(let ((?x2333 (ite $x2623 (_ bv91 32) (_ bv90 32))))
(let (($x2527 (bvsge ?x1257 ?x2333)))
(let ((?x1407 (ite $x2527 (bvadd (bvsub ?x1257 ?x2333) (_ bv1 32)) (ite $x618 (bvadd (bvsub ?x1257 ?x2219) (_ bv1 32)) ?x4424))))
(let ((?x4056 (ite $x2623 (_ bv121 32) (_ bv120 32))))
(let (($x1047 (bvsge ?x1257 ?x4056)))
(let ((?x473 (ite $x2623 (_ bv152 32) (_ bv151 32))))
(let (($x2480 (bvsge ?x1257 ?x473)))
(let ((?x865 (ite $x2480 (bvadd (bvsub ?x1257 ?x473) (_ bv1 32)) (ite $x1047 (bvadd (bvsub ?x1257 ?x4056) (_ bv1 32)) ?x1407))))
(let ((?x1431 (ite $x2623 (_ bv182 32) (_ bv181 32))))
(let (($x1693 (bvsge ?x1257 ?x1431)))
(let ((?x3343 (ite $x2623 (_ bv213 32) (_ bv212 32))))
(let (($x420 (bvsge ?x1257 ?x3343)))
(let ((?x3669 (ite $x420 (bvadd (bvsub ?x1257 ?x3343) (_ bv1 32)) (ite $x1693 (bvadd (bvsub ?x1257 ?x1431) (_ bv1 32)) ?x865))))
(let ((?x3141 (ite $x2623 (_ bv244 32) (_ bv243 32))))
(let (($x1108 (bvsge ?x1257 ?x3141)))
(let ((?x4457 (ite $x2623 (_ bv274 32) (_ bv273 32))))
(let (($x1388 (bvsge ?x1257 ?x4457)))
(let ((?x3133 (ite $x1388 (bvadd (bvsub ?x1257 ?x4457) (_ bv1 32)) (ite $x1108 (bvadd (bvsub ?x1257 ?x3141) (_ bv1 32)) ?x3669))))
(let ((?x4224 (ite $x2623 (_ bv305 32) (_ bv304 32))))
(let (($x3917 (bvsge ?x1257 ?x4224)))
(let ((?x4044 (ite $x2623 (_ bv335 32) (_ bv334 32))))
(let (($x1720 (bvsge ?x1257 ?x4044)))
(let ((?x1854 (ite $x1720 (bvadd (bvsub ?x1257 ?x4044) (_ bv1 32)) (ite $x3917 (bvadd (bvsub ?x1257 ?x4224) (_ bv1 32)) ?x3133))))
(let (($x1247 (= (_ bv0 32) (_ bv0 32))))
(let (($x1973 (and (= (bvsmod (ite $x1247 ?x3863 ?x912) (_ bv4 32)) (_ bv0 32)) (and (distinct (bvsmod (ite $x1247 ?x3863 ?x912) (_ bv100 32)) (_ bv0 32)) true))))
(let (($x2396 (or $x1973 (= (bvsmod (ite $x1247 ?x3863 ?x912) (_ bv400 32)) (_ bv0 32)))))
(let ((?x847 (ite $x2480 (_ bv6 32) (ite $x1047 (_ bv5 32) (ite $x2527 (_ bv4 32) (ite $x618 (_ bv3 32) (ite $x1801 (_ bv2 32) (_ bv1 32))))))))
(let ((?x991 (ite $x3917 (_ bv11 32) (ite $x1388 (_ bv10 32) (ite $x1108 (_ bv9 32) (ite $x420 (_ bv8 32) (ite $x1693 (_ bv7 32) ?x847)))))))
(let ((?x3881 (ite $x1247 ?x3251 (ite $x1720 (_ bv12 32) ?x991))))
(let ((?x40680 (ite (= (_ bv2 32) ?x3881) (ite $x2396 (_ bv31 32) (_ bv31 32)) (ite (= (_ bv1 32) ?x3881) (ite $x2396 (_ bv0 32) (_ bv0 32)) (_ bv0 32)))))
(let ((?x40745 (ite (= (_ bv4 32) ?x3881) (ite $x2396 (_ bv91 32) (_ bv90 32)) (ite (= (_ bv3 32) ?x3881) (ite $x2396 (_ bv60 32) (_ bv59 32)) ?x40680))))
(let ((?x3660 (ite (= (_ bv6 32) ?x3881) (ite $x2396 (_ bv152 32) (_ bv151 32)) (ite (= (_ bv5 32) ?x3881) (ite $x2396 (_ bv121 32) (_ bv120 32)) ?x40745))))
(let ((?x40206 (ite (= (_ bv8 32) ?x3881) (ite $x2396 (_ bv213 32) (_ bv212 32)) (ite (= (_ bv7 32) ?x3881) (ite $x2396 (_ bv182 32) (_ bv181 32)) ?x3660))))
(let ((?x3658 (ite (= (_ bv10 32) ?x3881) (ite $x2396 (_ bv274 32) (_ bv273 32)) (ite (= (_ bv9 32) ?x3881) (ite $x2396 (_ bv244 32) (_ bv243 32)) ?x40206))))
(let ((?x3981 (ite (= (_ bv12 32) ?x3881) (ite $x2396 (_ bv335 32) (_ bv334 32)) (ite (= (_ bv11 32) ?x3881) (ite $x2396 (_ bv305 32) (_ bv304 32)) ?x3658))))
(let ((?x3859 (bvadd (bvmul (_ bv365 32) (bvsub (ite $x1247 ?x3863 ?x912) (_ bv1 32))) (bvsdiv (bvsub (ite $x1247 ?x3863 ?x912) (_ bv1 32)) (_ bv4 32)))))
(let ((?x3321 (bvadd (bvsub ?x3859 (bvsdiv (bvsub (ite $x1247 ?x3863 ?x912) (_ bv1 32)) (_ bv100 32))) (bvsdiv (bvsub (ite $x1247 ?x3863 ?x912) (_ bv1 32)) (_ bv400 32)))))
(let ((?x1651 (bvsub (bvadd (bvadd ?x3321 ?x3981) (bvsub (ite $x1247 ?x3186 ?x1854) (_ bv1 32))) (_ bv730179 32))))
(= ?x1651 (_ bv7669 32))))))))))))))))))))))))))))))))))))))))))))))))))))))))))))))))))))))))))))))))))))))))))))))))))))))))))))))))))))))))
(check-sat)
